39176
0 0 0 0 1 0 1 0 0 0 0 0 0 1 0 1 0 1 1 0 0 0 0 1 1 1 0 0 1 1 
18 6 15 15 24 6 25 28 18 28 4 28 23 13 15 18 13 13 18 15 18 24 23 24 23 18 24 28 29 15 6 4 4 15 25 6 13 15 24 15 18 29 6 4 13 4 13 24 15 17 24 15 17 24 13 6 6 15 18 25 4 17 18 29 23 25 23 17 28 6 18 6 4 15 23 23 13 23 13 15 23 15 15 25 4 23 17 23 24 18 28 6 18 25 25 13 25 28 17 28 28 15 25 18 4 17 4 24 25 29 6 4 24 6 6 15 28 25 17 13 17 25 28 4 29 15 24 28 4 17 25 24 6 13 23 25 15 13 28 17 6 18 28 25 25 15 24 25 18 25 17 28 23 17 13 28 15 15 29 13 13 17 23 24 15 18 15 4 13 15 13 13 29 17 4 25 17 25 4 13 15 15 24 29 6 15 28 23 17 24 15 15 6 4 18 6 25 15 23 25 